(set-info :smt-lib-version 2.6)
(set-logic QF_NIA)
(set-info :source |
Generated by: Cristina Borralleras, Daniel Larraz, Albert Oliveras, Enric Rodriguez-Carbonell, Albert Rubio
Generated on: 2017-04-27
Generator: VeryMax
Application: Termination proving
Target solver: barcelogic
|)
(set-info :license "https://creativecommons.org/licenses/by/4.0/")
(set-info :category "industrial")
(set-info :status unknown)
(declare-fun Nl6arg11 () Int)
(declare-fun Nl6arg21 () Int)
(declare-fun Nl6arg31 () Int)
(declare-fun Nl6arg41 () Int)
(declare-fun Nl6arg12 () Int)
(declare-fun Nl6arg22 () Int)
(declare-fun Nl6arg32 () Int)
(declare-fun Nl6arg42 () Int)
(declare-fun lam0n0 () Int)
(declare-fun lam0n1 () Int)
(declare-fun lam0n2 () Int)
(declare-fun lam0n3 () Int)
(declare-fun lam0n4 () Int)
(declare-fun lam0n5 () Int)
(declare-fun lam0n6 () Int)
(declare-fun lam0n7 () Int)
(declare-fun lam0n8 () Int)
(declare-fun lam0n9 () Int)
(declare-fun lam0n10 () Int)
(declare-fun lam0n11 () Int)
(declare-fun lam0n12 () Int)
(declare-fun lam0n13 () Int)
(declare-fun lam0n14 () Int)
(declare-fun lam0n15 () Int)
(declare-fun Nl6CT1 () Int)
(declare-fun Nl6CT2 () Int)
(declare-fun lam1n0 () Int)
(declare-fun lam1n1 () Int)
(declare-fun lam1n2 () Int)
(declare-fun lam1n3 () Int)
(declare-fun lam1n4 () Int)
(declare-fun lam1n5 () Int)
(declare-fun lam1n6 () Int)
(declare-fun lam1n7 () Int)
(declare-fun lam1n8 () Int)
(declare-fun lam1n9 () Int)
(declare-fun lam1n10 () Int)
(declare-fun lam1n11 () Int)
(declare-fun lam1n12 () Int)
(declare-fun lam1n13 () Int)
(declare-fun lam1n14 () Int)
(declare-fun lam1n15 () Int)
(declare-fun lam2n0 () Int)
(declare-fun lam2n1 () Int)
(declare-fun lam2n2 () Int)
(declare-fun lam2n3 () Int)
(declare-fun lam2n4 () Int)
(declare-fun lam2n5 () Int)
(declare-fun lam2n6 () Int)
(declare-fun lam2n7 () Int)
(declare-fun lam2n8 () Int)
(declare-fun lam2n9 () Int)
(declare-fun lam2n10 () Int)
(declare-fun lam2n11 () Int)
(declare-fun lam2n12 () Int)
(declare-fun lam2n13 () Int)
(declare-fun lam2n14 () Int)
(declare-fun lam2n15 () Int)
(declare-fun lam3n0 () Int)
(declare-fun lam3n1 () Int)
(declare-fun lam3n2 () Int)
(declare-fun lam3n3 () Int)
(declare-fun lam3n4 () Int)
(declare-fun lam3n5 () Int)
(declare-fun lam3n6 () Int)
(declare-fun lam3n7 () Int)
(declare-fun lam4n0 () Int)
(declare-fun lam4n1 () Int)
(declare-fun lam4n2 () Int)
(declare-fun lam4n3 () Int)
(declare-fun lam4n4 () Int)
(declare-fun lam4n5 () Int)
(declare-fun lam4n6 () Int)
(declare-fun lam4n7 () Int)
(declare-fun undef49 () Int)
(declare-fun undef57 () Int)
(declare-fun undef58 () Int)
(declare-fun undef59 () Int)
(declare-fun undef33 () Int)
(declare-fun undef34 () Int)
(declare-fun undef35 () Int)
(declare-fun undef36 () Int)
(declare-fun lam5n0 () Int)
(declare-fun lam5n1 () Int)
(declare-fun lam5n2 () Int)
(declare-fun lam5n3 () Int)
(declare-fun lam5n4 () Int)
(declare-fun lam5n5 () Int)
(declare-fun lam5n6 () Int)
(declare-fun lam5n7 () Int)
(declare-fun lam5n8 () Int)
(declare-fun lam5n9 () Int)
(declare-fun lam6n0 () Int)
(declare-fun lam6n1 () Int)
(declare-fun lam6n2 () Int)
(declare-fun lam6n3 () Int)
(declare-fun lam6n4 () Int)
(declare-fun lam6n5 () Int)
(declare-fun lam6n6 () Int)
(declare-fun lam6n7 () Int)
(declare-fun lam6n8 () Int)
(declare-fun lam6n9 () Int)
(assert ( and ( <= ( - 1 ) Nl6arg11 ) ( <= Nl6arg11 1 ) ( <= ( - 1 ) Nl6arg21 ) ( <= Nl6arg21 1 ) ( <= ( - 1 ) Nl6arg31 ) ( <= Nl6arg31 1 ) ( <= ( - 1 ) Nl6arg41 ) ( <= Nl6arg41 1 ) ( <= ( - 1 ) Nl6arg12 ) ( <= Nl6arg12 1 ) ( <= ( - 1 ) Nl6arg22 ) ( <= Nl6arg22 1 ) ( <= ( - 1 ) Nl6arg32 ) ( <= Nl6arg32 1 ) ( <= ( - 1 ) Nl6arg42 ) ( <= Nl6arg42 1 ) ))
(assert ( or ( and ( >= lam0n0 0 ) ( >= lam0n1 0 ) ( >= lam0n2 0 ) ( >= lam0n3 0 ) ( >= lam0n4 0 ) ( >= lam0n5 0 ) ( >= lam0n6 0 ) ( >= lam0n7 0 ) ( >= lam0n8 0 ) ( >= lam0n9 0 ) ( >= lam0n10 0 ) ( >= lam0n11 0 ) ( >= lam0n12 0 ) ( >= lam0n13 0 ) ( >= lam0n14 0 ) ( >= lam0n15 0 ) ( > ( + ( * 3 lam0n0 ) ( * 3 lam0n1 ) ( * 3 lam0n2 ) ( * 3 lam0n3 ) ( * 1 lam0n4 ) ( * 1 lam0n5 ) ( * 1 lam0n6 ) ( * 1 lam0n7 ) ( * 1 lam0n8 ) ( * 2 lam0n12 ) ( * 2 lam0n13 ) ( * Nl6CT1 lam0n14 ) ( * Nl6CT2 lam0n15 ) ( - 1 ) ) 0 ) ( = ( + ( * ( - 1 ) lam0n0 ) ( * ( - 1 ) lam0n1 ) ( * ( - 1 ) lam0n12 ) ( * Nl6arg11 lam0n14 ) ( * Nl6arg12 lam0n15 ) ) 0 ) ( = ( + ( * ( - 1 ) lam0n4 ) ( * ( - 1 ) lam0n5 ) ( * ( - 1 ) lam0n9 ) ( * Nl6arg21 lam0n14 ) ( * Nl6arg22 lam0n15 ) ) 0 ) ( = ( + ( * Nl6arg31 lam0n14 ) ( * Nl6arg32 lam0n15 ) ) 0 ) ( = ( + ( * Nl6arg41 lam0n14 ) ( * Nl6arg42 lam0n15 ) ) 0 ) ( = ( + ( * ( - 1 ) lam0n6 ) ( * 1 lam0n9 ) ( * 1 lam0n12 ) ) 0 ) ( = ( + ( * 1 lam0n1 ) ( * 1 lam0n5 ) ( * ( - 1 ) lam0n10 ) ) 0 ) ( = ( + ( * ( - 1 ) lam0n2 ) ( * ( - 1 ) lam0n7 ) ( * ( - 1 ) lam0n11 ) ) 0 ) ( = ( + ( * ( - 1 ) lam0n3 ) ( * 1 lam0n11 ) ) 0 ) ( = ( + ( * 1 lam0n7 ) ( * ( - 1 ) lam0n13 ) ) 0 ) ( = ( * ( - 1 ) lam0n8 ) 0 ) ) ( and ( >= lam1n0 0 ) ( >= lam1n1 0 ) ( >= lam1n2 0 ) ( >= lam1n3 0 ) ( >= lam1n4 0 ) ( >= lam1n5 0 ) ( >= lam1n6 0 ) ( >= lam1n7 0 ) ( >= lam1n8 0 ) ( >= lam1n9 0 ) ( >= lam1n10 0 ) ( >= lam1n11 0 ) ( >= lam1n12 0 ) ( >= lam1n13 0 ) ( >= lam1n14 0 ) ( >= lam1n15 0 ) ( > ( + ( * 3 lam1n0 ) ( * 3 lam1n1 ) ( * 3 lam1n2 ) ( * 3 lam1n3 ) ( * 1 lam1n4 ) ( * 1 lam1n5 ) ( * 1 lam1n6 ) ( * 1 lam1n7 ) ( * 1 lam1n8 ) ( * 2 lam1n12 ) ( * 2 lam1n13 ) ( * Nl6CT1 lam1n14 ) ( * Nl6CT2 lam1n15 ) ( - 1 ( + ( + ( + ( + Nl6CT1 ( * Nl6arg11 0 ) ) ( * Nl6arg21 0 ) ) ( * Nl6arg31 0 ) ) ( * Nl6arg41 0 ) ) ) ) 0 ) ( = ( + ( * ( - 1 ) lam1n0 ) ( * ( - 1 ) lam1n1 ) ( * ( - 1 ) lam1n12 ) ( * Nl6arg11 lam1n14 ) ( * Nl6arg12 lam1n15 ) ) 0 ) ( = ( + ( * ( - 1 ) lam1n4 ) ( * ( - 1 ) lam1n5 ) ( * ( - 1 ) lam1n9 ) ( * Nl6arg21 lam1n14 ) ( * Nl6arg22 lam1n15 ) ) 0 ) ( = ( + ( * Nl6arg31 lam1n14 ) ( * Nl6arg32 lam1n15 ) ) 0 ) ( = ( + ( * Nl6arg41 lam1n14 ) ( * Nl6arg42 lam1n15 ) ) 0 ) ( = ( + ( * ( - 1 ) lam1n6 ) ( * 1 lam1n9 ) ( * 1 lam1n12 ) ( - ( + 0 ( * Nl6arg11 1 ) ) ) ) 0 ) ( = ( + ( * 1 lam1n1 ) ( * 1 lam1n5 ) ( * ( - 1 ) lam1n10 ) ( - ( + 0 ( * Nl6arg21 1 ) ) ) ) 0 ) ( = ( - ( + 0 ( * Nl6arg31 1 ) ) ) 0 ) ( = ( - ( + 0 ( * Nl6arg41 1 ) ) ) 0 ) ( = ( + ( * ( - 1 ) lam1n2 ) ( * ( - 1 ) lam1n7 ) ( * ( - 1 ) lam1n11 ) ) 0 ) ( = ( + ( * ( - 1 ) lam1n3 ) ( * 1 lam1n11 ) ) 0 ) ( = ( + ( * 1 lam1n7 ) ( * ( - 1 ) lam1n13 ) ) 0 ) ( = ( * ( - 1 ) lam1n8 ) 0 ) ) ))
(assert ( or ( and ( >= lam0n0 0 ) ( >= lam0n1 0 ) ( >= lam0n2 0 ) ( >= lam0n3 0 ) ( >= lam0n4 0 ) ( >= lam0n5 0 ) ( >= lam0n6 0 ) ( >= lam0n7 0 ) ( >= lam0n8 0 ) ( >= lam0n9 0 ) ( >= lam0n10 0 ) ( >= lam0n11 0 ) ( >= lam0n12 0 ) ( >= lam0n13 0 ) ( >= lam0n14 0 ) ( >= lam0n15 0 ) ( > ( + ( * 3 lam0n0 ) ( * 3 lam0n1 ) ( * 3 lam0n2 ) ( * 3 lam0n3 ) ( * 1 lam0n4 ) ( * 1 lam0n5 ) ( * 1 lam0n6 ) ( * 1 lam0n7 ) ( * 1 lam0n8 ) ( * 2 lam0n12 ) ( * 2 lam0n13 ) ( * Nl6CT1 lam0n14 ) ( * Nl6CT2 lam0n15 ) ( - 1 ) ) 0 ) ( = ( + ( * ( - 1 ) lam0n0 ) ( * ( - 1 ) lam0n1 ) ( * ( - 1 ) lam0n12 ) ( * Nl6arg11 lam0n14 ) ( * Nl6arg12 lam0n15 ) ) 0 ) ( = ( + ( * ( - 1 ) lam0n4 ) ( * ( - 1 ) lam0n5 ) ( * ( - 1 ) lam0n9 ) ( * Nl6arg21 lam0n14 ) ( * Nl6arg22 lam0n15 ) ) 0 ) ( = ( + ( * Nl6arg31 lam0n14 ) ( * Nl6arg32 lam0n15 ) ) 0 ) ( = ( + ( * Nl6arg41 lam0n14 ) ( * Nl6arg42 lam0n15 ) ) 0 ) ( = ( + ( * ( - 1 ) lam0n6 ) ( * 1 lam0n9 ) ( * 1 lam0n12 ) ) 0 ) ( = ( + ( * 1 lam0n1 ) ( * 1 lam0n5 ) ( * ( - 1 ) lam0n10 ) ) 0 ) ( = ( + ( * ( - 1 ) lam0n2 ) ( * ( - 1 ) lam0n7 ) ( * ( - 1 ) lam0n11 ) ) 0 ) ( = ( + ( * ( - 1 ) lam0n3 ) ( * 1 lam0n11 ) ) 0 ) ( = ( + ( * 1 lam0n7 ) ( * ( - 1 ) lam0n13 ) ) 0 ) ( = ( * ( - 1 ) lam0n8 ) 0 ) ) ( and ( >= lam2n0 0 ) ( >= lam2n1 0 ) ( >= lam2n2 0 ) ( >= lam2n3 0 ) ( >= lam2n4 0 ) ( >= lam2n5 0 ) ( >= lam2n6 0 ) ( >= lam2n7 0 ) ( >= lam2n8 0 ) ( >= lam2n9 0 ) ( >= lam2n10 0 ) ( >= lam2n11 0 ) ( >= lam2n12 0 ) ( >= lam2n13 0 ) ( >= lam2n14 0 ) ( >= lam2n15 0 ) ( > ( + ( * 3 lam2n0 ) ( * 3 lam2n1 ) ( * 3 lam2n2 ) ( * 3 lam2n3 ) ( * 1 lam2n4 ) ( * 1 lam2n5 ) ( * 1 lam2n6 ) ( * 1 lam2n7 ) ( * 1 lam2n8 ) ( * 2 lam2n12 ) ( * 2 lam2n13 ) ( * Nl6CT1 lam2n14 ) ( * Nl6CT2 lam2n15 ) ( - 1 ( + ( + ( + ( + Nl6CT2 ( * Nl6arg12 0 ) ) ( * Nl6arg22 0 ) ) ( * Nl6arg32 0 ) ) ( * Nl6arg42 0 ) ) ) ) 0 ) ( = ( + ( * ( - 1 ) lam2n0 ) ( * ( - 1 ) lam2n1 ) ( * ( - 1 ) lam2n12 ) ( * Nl6arg11 lam2n14 ) ( * Nl6arg12 lam2n15 ) ) 0 ) ( = ( + ( * ( - 1 ) lam2n4 ) ( * ( - 1 ) lam2n5 ) ( * ( - 1 ) lam2n9 ) ( * Nl6arg21 lam2n14 ) ( * Nl6arg22 lam2n15 ) ) 0 ) ( = ( + ( * Nl6arg31 lam2n14 ) ( * Nl6arg32 lam2n15 ) ) 0 ) ( = ( + ( * Nl6arg41 lam2n14 ) ( * Nl6arg42 lam2n15 ) ) 0 ) ( = ( + ( * ( - 1 ) lam2n6 ) ( * 1 lam2n9 ) ( * 1 lam2n12 ) ( - ( + 0 ( * Nl6arg12 1 ) ) ) ) 0 ) ( = ( + ( * 1 lam2n1 ) ( * 1 lam2n5 ) ( * ( - 1 ) lam2n10 ) ( - ( + 0 ( * Nl6arg22 1 ) ) ) ) 0 ) ( = ( - ( + 0 ( * Nl6arg32 1 ) ) ) 0 ) ( = ( - ( + 0 ( * Nl6arg42 1 ) ) ) 0 ) ( = ( + ( * ( - 1 ) lam2n2 ) ( * ( - 1 ) lam2n7 ) ( * ( - 1 ) lam2n11 ) ) 0 ) ( = ( + ( * ( - 1 ) lam2n3 ) ( * 1 lam2n11 ) ) 0 ) ( = ( + ( * 1 lam2n7 ) ( * ( - 1 ) lam2n13 ) ) 0 ) ( = ( * ( - 1 ) lam2n8 ) 0 ) ) ))
(assert ( and ( <= ( + 3 ( * ( - 1 ) undef49 ) ) 0 ) ( <= ( + 3 ( * ( - 1 ) undef57 ) ) 0 ) ( <= ( + 1 ( * ( - 1 ) undef49 ) undef58 ) 0 ) ( <= ( + 1 ( * ( - 1 ) undef59 ) ) 0 ) ( <= ( + ( * ( - 1 ) undef49 ) undef57 ) 0 ) ( <= ( + 4 ( * ( - 1 ) undef33 ) ) 0 ) ( <= ( + 2 ( * ( - 1 ) undef34 ) ) 0 ) ( <= ( + 2 ( * ( - 1 ) undef58 ) ) 0 ) ( <= ( + ( + ( + ( + ( + Nl6CT1 ( * Nl6arg11 0 ) ) ( * Nl6arg21 0 ) ) ( * Nl6arg31 0 ) ) ( * Nl6arg41 0 ) ) ( * ( + 0 ( * Nl6arg11 1 ) ) undef33 ) ( * ( + 0 ( * Nl6arg21 1 ) ) undef34 ) ( * ( + 0 ( * Nl6arg31 1 ) ) undef35 ) ( * ( + 0 ( * Nl6arg41 1 ) ) undef36 ) ) 0 ) ( <= ( + ( + ( + ( + ( + Nl6CT2 ( * Nl6arg12 0 ) ) ( * Nl6arg22 0 ) ) ( * Nl6arg32 0 ) ) ( * Nl6arg42 0 ) ) ( * ( + 0 ( * Nl6arg12 1 ) ) undef33 ) ( * ( + 0 ( * Nl6arg22 1 ) ) undef34 ) ( * ( + 0 ( * Nl6arg32 1 ) ) undef35 ) ( * ( + 0 ( * Nl6arg42 1 ) ) undef36 ) ) 0 ) ))
(assert ( or ( or ( and ( >= lam5n0 0 ) ( >= lam5n1 0 ) ( >= lam5n2 0 ) ( >= lam5n3 0 ) ( >= lam5n4 0 ) ( >= lam5n5 0 ) ( >= lam5n6 0 ) ( >= lam5n7 0 ) ( >= lam5n8 0 ) ( >= lam5n9 0 ) ( > ( + ( * 3 lam5n0 ) ( * 3 lam5n1 ) ( * 3 lam5n2 ) ( * 1 lam5n3 ) ( * 1 lam5n4 ) ( * 1 lam5n5 ) ( * 2 lam5n7 ) ( * Nl6CT1 lam5n8 ) ( * Nl6CT2 lam5n9 ) ( - 1 ) ) 0 ) ( = ( + ( * ( - 1 ) lam5n0 ) ( * Nl6arg11 lam5n8 ) ( * Nl6arg12 lam5n9 ) ) 0 ) ( = ( + ( * ( - 1 ) lam5n3 ) ( * Nl6arg21 lam5n8 ) ( * Nl6arg22 lam5n9 ) ) 0 ) ( = ( + ( * Nl6arg31 lam5n8 ) ( * Nl6arg32 lam5n9 ) ) 0 ) ( = ( + ( * Nl6arg41 lam5n8 ) ( * Nl6arg42 lam5n9 ) ) 0 ) ( = ( + ( * ( - 1 ) lam5n1 ) ( * ( - 1 ) lam5n4 ) ( * ( - 1 ) lam5n6 ) ) 0 ) ( = ( + ( * ( - 1 ) lam5n2 ) ( * 1 lam5n6 ) ) 0 ) ( = ( + ( * 1 lam5n4 ) ( * ( - 1 ) lam5n7 ) ) 0 ) ( = ( * ( - 1 ) lam5n5 ) 0 ) ) ( and ( >= lam6n0 0 ) ( >= lam6n1 0 ) ( >= lam6n2 0 ) ( >= lam6n3 0 ) ( >= lam6n4 0 ) ( >= lam6n5 0 ) ( >= lam6n6 0 ) ( >= lam6n7 0 ) ( >= lam6n8 0 ) ( >= lam6n9 0 ) ( > ( + ( * 3 lam6n0 ) ( * 3 lam6n1 ) ( * 3 lam6n2 ) ( * 1 lam6n3 ) ( * 1 lam6n4 ) ( * 1 lam6n5 ) ( * 2 lam6n7 ) ( * Nl6CT1 lam6n8 ) ( * Nl6CT2 lam6n9 ) 3 ) 0 ) ( = ( + ( * ( - 1 ) lam6n0 ) ( * Nl6arg11 lam6n8 ) ( * Nl6arg12 lam6n9 ) ) 0 ) ( = ( + ( * ( - 1 ) lam6n3 ) ( * Nl6arg21 lam6n8 ) ( * Nl6arg22 lam6n9 ) ) 0 ) ( = ( + ( * Nl6arg31 lam6n8 ) ( * Nl6arg32 lam6n9 ) ) 0 ) ( = ( + ( * Nl6arg41 lam6n8 ) ( * Nl6arg42 lam6n9 ) ) 0 ) ( = ( + ( * ( - 1 ) lam6n1 ) ( * ( - 1 ) lam6n4 ) ( * ( - 1 ) lam6n6 ) ) 0 ) ( = ( + ( * ( - 1 ) lam6n2 ) ( * 1 lam6n6 ) ( - 1 ) ) 0 ) ( = ( + ( * 1 lam6n4 ) ( * ( - 1 ) lam6n7 ) ) 0 ) ( = ( * ( - 1 ) lam6n5 ) 0 ) ) ) ( and ( and ( <= ( + 3 ( * ( - 1 ) undef49 ) ) 0 ) ( <= ( + 3 ( * ( - 1 ) undef57 ) ) 0 ) ( <= ( + 1 ( * ( - 1 ) undef49 ) undef58 ) 0 ) ( <= ( + 1 ( * ( - 1 ) undef59 ) ) 0 ) ( <= ( + ( * ( - 1 ) undef49 ) undef57 ) 0 ) ( <= ( + 4 ( * ( - 1 ) undef33 ) ) 0 ) ( <= ( + 2 ( * ( - 1 ) undef34 ) ) 0 ) ( <= ( + 2 ( * ( - 1 ) undef58 ) ) 0 ) ( <= ( + ( + ( + ( + ( + Nl6CT1 ( * Nl6arg11 0 ) ) ( * Nl6arg21 0 ) ) ( * Nl6arg31 0 ) ) ( * Nl6arg41 0 ) ) ( * ( + 0 ( * Nl6arg11 1 ) ) undef33 ) ( * ( + 0 ( * Nl6arg21 1 ) ) undef34 ) ( * ( + 0 ( * Nl6arg31 1 ) ) undef35 ) ( * ( + 0 ( * Nl6arg41 1 ) ) undef36 ) ) 0 ) ( <= ( + ( + ( + ( + ( + Nl6CT2 ( * Nl6arg12 0 ) ) ( * Nl6arg22 0 ) ) ( * Nl6arg32 0 ) ) ( * Nl6arg42 0 ) ) ( * ( + 0 ( * Nl6arg12 1 ) ) undef33 ) ( * ( + 0 ( * Nl6arg22 1 ) ) undef34 ) ( * ( + 0 ( * Nl6arg32 1 ) ) undef35 ) ( * ( + 0 ( * Nl6arg42 1 ) ) undef36 ) ) 0 ) ) ( and ( >= lam0n0 0 ) ( >= lam0n1 0 ) ( >= lam0n2 0 ) ( >= lam0n3 0 ) ( >= lam0n4 0 ) ( >= lam0n5 0 ) ( >= lam0n6 0 ) ( >= lam0n7 0 ) ( >= lam0n8 0 ) ( >= lam0n9 0 ) ( >= lam0n10 0 ) ( >= lam0n11 0 ) ( >= lam0n12 0 ) ( >= lam0n13 0 ) ( >= lam0n14 0 ) ( >= lam0n15 0 ) ( > ( + ( * 3 lam0n0 ) ( * 3 lam0n1 ) ( * 3 lam0n2 ) ( * 3 lam0n3 ) ( * 1 lam0n4 ) ( * 1 lam0n5 ) ( * 1 lam0n6 ) ( * 1 lam0n7 ) ( * 1 lam0n8 ) ( * 2 lam0n12 ) ( * 2 lam0n13 ) ( * Nl6CT1 lam0n14 ) ( * Nl6CT2 lam0n15 ) ( - 1 ) ) 0 ) ( = ( + ( * ( - 1 ) lam0n0 ) ( * ( - 1 ) lam0n1 ) ( * ( - 1 ) lam0n12 ) ( * Nl6arg11 lam0n14 ) ( * Nl6arg12 lam0n15 ) ) 0 ) ( = ( + ( * ( - 1 ) lam0n4 ) ( * ( - 1 ) lam0n5 ) ( * ( - 1 ) lam0n9 ) ( * Nl6arg21 lam0n14 ) ( * Nl6arg22 lam0n15 ) ) 0 ) ( = ( + ( * Nl6arg31 lam0n14 ) ( * Nl6arg32 lam0n15 ) ) 0 ) ( = ( + ( * Nl6arg41 lam0n14 ) ( * Nl6arg42 lam0n15 ) ) 0 ) ( = ( + ( * ( - 1 ) lam0n6 ) ( * 1 lam0n9 ) ( * 1 lam0n12 ) ) 0 ) ( = ( + ( * 1 lam0n1 ) ( * 1 lam0n5 ) ( * ( - 1 ) lam0n10 ) ) 0 ) ( = ( + ( * ( - 1 ) lam0n2 ) ( * ( - 1 ) lam0n7 ) ( * ( - 1 ) lam0n11 ) ) 0 ) ( = ( + ( * ( - 1 ) lam0n3 ) ( * 1 lam0n11 ) ) 0 ) ( = ( + ( * 1 lam0n7 ) ( * ( - 1 ) lam0n13 ) ) 0 ) ( = ( * ( - 1 ) lam0n8 ) 0 ) ) ) ))
(check-sat)
(exit)
